p cnf 10 50
1 -7 -4 0
3 -1 7 0
-8 10 9 0
8 -3 7 0
1 -3 -8 0
7 5 9 0
6 3 -1 0
-8 -7 -2 0
1 -7 -4 0
10 -7 4 0
3 4 9 0
4 -5 9 0
1 -5 7 0
-1 10 5 0
1 -5 3 0
3 5 2 0
10 1 -7 0
5 -1 6 0
8 -1 -2 0
-7 -3 4 0
-2 9 1 0
-1 -7 -5 0
4 -8 -3 0
9 -10 -3 0
-1 -5 -10 0
2 8 -3 0
-10 6 8 0
9 10 5 0
5 -10 -2 0
3 -4 7 0
-5 -9 8 0
1 -2 -7 0
-4 -5 6 0
7 1 3 0
2 -10 -4 0
-2 -7 -6 0
-1 8 2 0
9 5 -4 0
1 -7 2 0
9 3 7 0
4 -8 -6 0
-1 3 8 0
4 1 -6 0
-1 6 -8 0
-5 -1 -8 0
5 -4 -9 0
2 -9 4 0
-10 -7 2 0
-7 -3 9 0
-3 -7 1 0